RT is False
Default write of storage_offers_DA.csv just to have a file (but constraint should be inactive)
Reading model...
...model read.
creating competitive generators file...
...competitive generators recorded.
Loading data...
.. day-ahead data with real-time VRE data read.
Compiling instance...
...instance created.
Creating Offer Mitigation (model will solve as dispatch if TRUE)...
...storage offer mitigation file created
Converting model to MPEC...
...converted
NOTE: initial MIP solve with only storage competitive to get feasible solution
Solving...

Welcome to IBM(R) ILOG(R) CPLEX(R) Interactive Optimizer 12.9.0.0
  with Simplex, Mixed Integer & Barrier Optimizers
5725-A06 5725-A29 5724-Y48 5724-Y49 5724-Y54 5724-Y55 5655-Y21
Copyright IBM Corp. 1988, 2019.  All Rights Reserved.

Type 'help' for a list of available commands.
Type 'help' followed by a command name for more
information on commands.

CPLEX> Logfile 'cplex.log' closed.
Logfile 'C:\Users\llavin\Desktop\test826\logs\tmp4jz9rj5y.cplex.log' open.
CPLEX> New value for parallel optimization mode: -1
CPLEX> New value for mixed integer optimality gap tolerance: 0.01
CPLEX> New value for integrality tolerance: 1e-09
CPLEX> New value for feasibility tolerance: 0.001
CPLEX> New value for deterministic time limit in ticks: 75000
CPLEX> Problem 'C:\Users\llavin\Desktop\test826\logs\tmp1zdouth0.pyomo.lp' read.
Read time = 0.23 sec. (14.73 ticks)
CPLEX> Problem name         : C:\Users\llavin\Desktop\test826\logs\tmp1zdouth0.pyomo.lp
Objective sense      : Maximize
Variables            :   53805  [Nneg: 1,  Box: 22000,  Free: 4464,
                                 Binary: 27340]
Objective nonzeros   :    9022
Linear constraints   :  123205  [Less: 41346,  Greater: 59096,  Equal: 22763]
  Nonzeros           :  291746
  RHS nonzeros       :   67484

Variables            : Min LB: -5000.000        Max UB: 1000000.       
Objective nonzeros   : Min   : 0.01666667       Max   : 2500.000       
Linear constraints   :
  Nonzeros           : Min   : 0.01666667       Max   : 1000000.       
  RHS nonzeros       : Min   : 0.01666667       Max   : 1000000.       
CPLEX> CPXPARAM_Parallel                                -1
CPXPARAM_Simplex_Tolerances_Feasibility          0.001
CPXPARAM_DetTimeLimit                            75000
CPXPARAM_MIP_Tolerances_MIPGap                   0.01
CPXPARAM_MIP_Tolerances_Integrality              1.0000000000000001e-09
Tried aggregator 3 times.
MIP Presolve eliminated 88745 rows and 19066 columns.
MIP Presolve added 3361 rows and 0 columns.
MIP Presolve modified 24862 coefficients.
Aggregator did 12975 substitutions.
Reduced MIP has 24846 rows, 21205 columns, and 70878 nonzeros.
Reduced MIP has 8382 binaries, 0 generals, 0 SOSs, and 0 indicators.
Presolve time = 0.30 sec. (173.65 ticks)
Probing fixed 377 vars, tightened 2810 bounds.
Probing time = 1.17 sec. (872.48 ticks)
Tried aggregator 2 times.
MIP Presolve eliminated 847 rows and 755 columns.
MIP Presolve modified 2206 coefficients.
Aggregator did 37 substitutions.
Reduced MIP has 23962 rows, 20413 columns, and 68313 nonzeros.
Reduced MIP has 8005 binaries, 0 generals, 0 SOSs, and 0 indicators.
Presolve time = 0.09 sec. (68.34 ticks)
Probing time = 0.05 sec. (15.54 ticks)
Clique table members: 6462.
MIP emphasis: balance optimality and feasibility.
MIP search method: dynamic search.
Parallel mode: opportunistic, using up to 32 threads.
Root relaxation solution time = 0.52 sec. (615.62 ticks)

        Nodes                                         Cuts/
   Node  Left     Objective  IInf  Best Integer    Best Bound    ItCnt     Gap

      0     0     2632.4385   722                   2632.4385     6781         
      0     2     2632.4385     1                   2632.4385     6781         
Elapsed time = 7.89 sec. (4671.09 ticks, tree = 0.02 MB, solutions = 8)
*     3+   14                         2632.4385     2632.4385             0.00%

Root node processing (before b&c):
  Real time             =    6.77 sec. (4629.58 ticks)
Parallel b&c, 32 threads:
  Real time             =    1.41 sec. (211.62 ticks)
  Sync time (average)   =    0.27 sec.
  Wait time (average)   =    0.00 sec.
                          ------------
Total (root+branch&cut) =    8.17 sec. (4841.20 ticks)

Solution pool: 10 solutions saved.

MIP - Integer optimal solution:  Objective =  2.6324384611e+03
Solution time =    8.20 sec.  Iterations = 6983  Nodes = 77
Deterministic time = 4841.35 ticks  (590.19 ticks/sec)

CPLEX> Incumbent solution written to file 'C:\Users\llavin\Desktop\test826\logs\tmpwwrhsz5h.cplex.sol'.
CPLEX> NOTE: no warmstart specified for MIP iteration, default behavior is true
NOTE: resolving with all competitive generators using storage-only solution to warmstart
Solving...

Welcome to IBM(R) ILOG(R) CPLEX(R) Interactive Optimizer 12.9.0.0
  with Simplex, Mixed Integer & Barrier Optimizers
5725-A06 5725-A29 5724-Y48 5724-Y49 5724-Y54 5724-Y55 5655-Y21
Copyright IBM Corp. 1988, 2019.  All Rights Reserved.

Type 'help' for a list of available commands.
Type 'help' followed by a command name for more
information on commands.

CPLEX> Logfile 'cplex.log' closed.
Logfile 'C:\Users\llavin\Desktop\test826\logs\tmp8bx1x5zb.cplex.log' open.
CPLEX> New value for parallel optimization mode: -1
CPLEX> New value for mixed integer optimality gap tolerance: 0.01
CPLEX> New value for integrality tolerance: 1e-09
CPLEX> New value for feasibility tolerance: 0.001
CPLEX> New value for deterministic time limit in ticks: 75000
CPLEX> Problem 'C:\Users\llavin\Desktop\test826\logs\tmpc3ledwxu.pyomo.lp' read.
Read time = 0.23 sec. (14.75 ticks)
CPLEX> MIP start file 'C:\Users\llavin\Desktop\test826\logs\tmptnskgi16.cplex.mst' read.
CPLEX> Problem name         : C:\Users\llavin\Desktop\test826\logs\tmpc3ledwxu.pyomo.lp
Objective sense      : Maximize
Variables            :   54525  [Nneg: 1,  Box: 22720,  Free: 4464,
                                 Binary: 27340]
Objective nonzeros   :    9742
Linear constraints   :  123205  [Less: 41346,  Greater: 59096,  Equal: 22763]
  Nonzeros           :  291746
  RHS nonzeros       :   67484

Variables            : Min LB: -5000.000        Max UB: 1000000.       
Objective nonzeros   : Min   : 0.01666667       Max   : 2500.000       
Linear constraints   :
  Nonzeros           : Min   : 0.01666667       Max   : 1000000.       
  RHS nonzeros       : Min   : 0.01666667       Max   : 1000000.       
CPLEX> CPXPARAM_Parallel                                -1
CPXPARAM_Simplex_Tolerances_Feasibility          0.001
CPXPARAM_DetTimeLimit                            75000
CPXPARAM_MIP_Tolerances_MIPGap                   0.01
CPXPARAM_MIP_Tolerances_Integrality              1.0000000000000001e-09
Warning:  No solution found from 1 MIP starts.
Retaining values of one MIP start for possible repair.
Tried aggregator 3 times.
MIP Presolve eliminated 88745 rows and 19786 columns.
MIP Presolve added 3361 rows and 0 columns.
MIP Presolve modified 24862 coefficients.
Aggregator did 12975 substitutions.
Reduced MIP has 24846 rows, 21205 columns, and 70878 nonzeros.
Reduced MIP has 8382 binaries, 0 generals, 0 SOSs, and 0 indicators.
Presolve time = 0.30 sec. (174.00 ticks)
Probing fixed 377 vars, tightened 2810 bounds.
Probing time = 1.17 sec. (872.48 ticks)
Tried aggregator 2 times.
MIP Presolve eliminated 847 rows and 755 columns.
MIP Presolve modified 2206 coefficients.
Aggregator did 37 substitutions.
Reduced MIP has 23962 rows, 20413 columns, and 68313 nonzeros.
Reduced MIP has 8005 binaries, 0 generals, 0 SOSs, and 0 indicators.
Presolve time = 0.11 sec. (68.34 ticks)
Probing time = 0.05 sec. (15.54 ticks)
Clique table members: 6462.
MIP emphasis: balance optimality and feasibility.
MIP search method: dynamic search.
Parallel mode: opportunistic, using up to 32 threads.
Root relaxation solution time = 0.52 sec. (615.62 ticks)

        Nodes                                         Cuts/
   Node  Left     Objective  IInf  Best Integer    Best Bound    ItCnt     Gap

      0     0     2632.4385   722                   2632.4385     6781         
Repair heuristic found nothing.
      0     2     2632.4385     1                   2632.4385     6781         
Elapsed time = 8.00 sec. (4778.72 ticks, tree = 0.02 MB, solutions = 3)
*     2+    9                         2632.4385     2632.4385             0.00%

Root node processing (before b&c):
  Real time             =    7.02 sec. (4734.73 ticks)
Parallel b&c, 32 threads:
  Real time             =    1.27 sec. (236.28 ticks)
  Sync time (average)   =    0.29 sec.
  Wait time (average)   =    0.00 sec.
                          ------------
Total (root+branch&cut) =    8.28 sec. (4971.01 ticks)

Solution pool: 3 solutions saved.

MIP - Integer optimal solution:  Objective =  2.6324384611e+03
Solution time =    8.31 sec.  Iterations = 6885  Nodes = 34
Deterministic time = 4971.17 ticks  (598.00 ticks/sec)

CPLEX> Incumbent solution written to file 'C:\Users\llavin\Desktop\test826\logs\tmpd_vfmprf.cplex.sol'.
CPLEX> Exporting results... 
